fix             3 all nvt temp 0.1 0.1 100
thermo_style    custom step temp pe press vol density
thermo          100
timestep        0.1
#reset_timestep  0
dump MyData all xyz 1000 dump.xyz
run             20000
unfix           3
undump MyData
write_restart   restart.Water15.in.reax1
write_data      reax.dat